# Solution for model meiosis_srl_ilp
# Objective value = 2.0132830685694476e+01
Z_281_1_0 0
Z_281_1_1 0
Z_281_1_2 1
Z_281_1_3 0
Z_281_1_4 0
Z_132_0_0 0
Z_132_0_1 0
Z_132_0_2 0
Z_132_0_3 1
Z_132_0_4 0
Z_236_0_0 0
Z_236_0_1 1
Z_236_0_2 0
Z_236_0_3 0
Z_236_0_4 0
Z_119_0_0 0
Z_119_0_1 0
Z_119_0_2 0
Z_119_0_3 0
Z_119_0_4 1
Z_166_2_0 0
Z_166_2_1 0
Z_166_2_2 0
Z_166_2_3 0
Z_166_2_4 1
Z_166_1_0 1
Z_166_1_1 0
Z_166_1_2 0
Z_166_1_3 0
Z_166_1_4 0
Z_166_0_0 0
Z_166_0_1 0
Z_166_0_2 1
Z_166_0_3 0
Z_166_0_4 0
Z_104_0_0 0
Z_104_0_1 0
Z_104_0_2 0
Z_104_0_3 1
Z_104_0_4 0
Z_182_0_0 0
Z_182_0_1 0
Z_182_0_2 0
Z_182_0_3 1
Z_182_0_4 0
Z_261_0_0 0
Z_261_0_1 0
Z_261_0_2 0
Z_261_0_3 1
Z_261_0_4 0
Z_5_1_0 0
Z_5_1_1 0
Z_5_1_2 0
Z_5_1_3 0
Z_5_1_4 1
Z_5_0_0 0
Z_5_0_1 0
Z_5_0_2 0
Z_5_0_3 0
Z_5_0_4 1
Z_5_2_0 0
Z_5_2_1 0
Z_5_2_2 0
Z_5_2_3 0
Z_5_2_4 1
Z_183_0_0 0
Z_183_0_1 1
Z_183_0_2 0
Z_183_0_3 0
Z_183_0_4 0
Z_747_0_0 0
Z_747_0_1 0
Z_747_0_2 0
Z_747_0_3 0
Z_747_0_4 1
Z_747_1_0 0
Z_747_1_1 0
Z_747_1_2 1
Z_747_1_3 0
Z_747_1_4 0
Z_747_2_0 0
Z_747_2_1 0
Z_747_2_2 0
Z_747_2_3 0
Z_747_2_4 1
Z_578_1_0 0
Z_578_1_1 0
Z_578_1_2 0
Z_578_1_3 0
Z_578_1_4 1
Z_578_0_0 0
Z_578_0_1 0
Z_578_0_2 1
Z_578_0_3 0
Z_578_0_4 0
Z_578_2_0 0
Z_578_2_1 0
Z_578_2_2 0
Z_578_2_3 0
Z_578_2_4 1
Z_527_0_0 0
Z_527_0_1 0
Z_527_0_2 0
Z_527_0_3 0
Z_527_0_4 1
Z_527_1_0 0
Z_527_1_1 0
Z_527_1_2 1
Z_527_1_3 0
Z_527_1_4 0
Z_285_1_0 1
Z_285_1_1 0
Z_285_1_2 0
Z_285_1_3 0
Z_285_1_4 0
Z_285_0_0 0
Z_285_0_1 0
Z_285_0_2 1
Z_285_0_3 0
Z_285_0_4 0
Z_381_0_0 0
Z_381_0_1 0
Z_381_0_2 0
Z_381_0_3 1
Z_381_0_4 0
Z_610_0_0 0
Z_610_0_1 0
Z_610_0_2 0
Z_610_0_3 1
Z_610_0_4 0
Z_531_0_0 0
Z_531_0_1 0
Z_531_0_2 0
Z_531_0_3 0
Z_531_0_4 1
Z_531_1_0 0
Z_531_1_1 0
Z_531_1_2 0
Z_531_1_3 0
Z_531_1_4 1
Z_531_3_0 0
Z_531_3_1 0
Z_531_3_2 0
Z_531_3_3 0
Z_531_3_4 1
Z_531_2_0 0
Z_531_2_1 0
Z_531_2_2 0
Z_531_2_3 0
Z_531_2_4 1
Z_531_4_0 0
Z_531_4_1 0
Z_531_4_2 0
Z_531_4_3 0
Z_531_4_4 1
